(declare-const a Real)
(declare-const b Real)
(declare-const c Real)
(assert (= (+ a b c) 3))
(assert (> a 0))
(assert (> b 0))
(assert (> c 0))
(assert (not (<= (+ (* (pow (+ (* b (pow a 3)) (* a c (+ (pow a 2) (pow c 2)))) -4) (pow (+ (* b c (pow a 3)) (* a b c (+ (pow a 2) (pow c 2)))) 5)) (* -2 a (pow b 8)) (* -2 b (pow c 8)) (* -2 c (pow a 8)) (* a (pow b 3) (pow c 5)) (* b c (pow a 5) (+ (pow b 2) (pow c 2)))) 0)))
(check-sat)
(get-model)
(exit)